(declare-fun temp138772_1 () (_ BitVec 64))
(declare-fun temp138772_2 () (_ BitVec 64))
(declare-fun var77740 () (_ BitVec 64))
(declare-fun k!0 () Bool)
(declare-fun ARGNAME_input_1_NAMEEND_DIM () (_ BitVec 64))
(declare-fun ARGNAME_data_format_NAMEEND_STRFMT () (_ BitVec 64))
(declare-fun temp138772_3 () (_ BitVec 64))
(declare-fun ARGNAME_input_2_NAMEEND_DIM () (_ BitVec 64))
(declare-fun var77770 () (_ BitVec 64))
(declare-fun temp138772_4 () (_ BitVec 64))
(declare-fun temp138772_5 () (_ BitVec 64))
(declare-fun ARGNAME_input_1_NAMEEND_DIMSIZE
             ()
             (Array (_ BitVec 64) (_ BitVec 64)))
(declare-fun temp138772_6 () (_ BitVec 64))
(declare-fun temp138772_7 () (_ BitVec 64))
(declare-fun temp138772_8 () (_ BitVec 64))
(declare-fun temp138772_9 () (_ BitVec 64))
(declare-fun temp138772_10 () (_ BitVec 64))
(declare-fun temp138772_11 () (_ BitVec 64))
(declare-fun temp138772_12 () (_ BitVec 64))
(declare-fun temp138772_13 () (_ BitVec 64))
(declare-fun temp138772_14 () (_ BitVec 64))
(declare-fun temp138772_15 () (_ BitVec 64))
(declare-fun temp138772_16 () (_ BitVec 64))
(declare-fun temp138772_17 () (_ BitVec 64))
(declare-fun temp138772_18 () (_ BitVec 64))
(declare-fun var77799 () (_ BitVec 64))
(declare-fun temp138772_19 () (_ BitVec 64))
(declare-fun ARGNAME_input_2_NAMEEND_DIMSIZE
             ()
             (Array (_ BitVec 64) (_ BitVec 64)))
(declare-fun temp138772_20 () (_ BitVec 64))
(declare-fun temp138772_21 () (_ BitVec 64))
(declare-fun temp138772_22 () (_ BitVec 64))
(declare-fun temp138772_23 () (_ BitVec 64))
(declare-fun temp138772_24 () (_ BitVec 64))
(declare-fun temp138772_25 () (_ BitVec 64))
(declare-fun temp138772_26 () (_ BitVec 64))
(declare-fun temp138772_27 () (_ BitVec 64))
(declare-fun temp138772_28 () (_ BitVec 64))
(declare-fun temp138772_29 () (_ BitVec 64))
(declare-fun temp138772_30 () (_ BitVec 64))
(declare-fun temp138772_31 () (_ BitVec 64))
(declare-fun temp138772_32 () (_ BitVec 64))
(declare-fun var77832 () (_ BitVec 64))
(declare-fun temp138772_33 () (_ BitVec 64))
(declare-fun temp138772_34 () (_ BitVec 64))
(declare-fun var77833 () (_ BitVec 64))
(declare-fun var77834 () (_ BitVec 64))
(declare-fun temp138772_35 () (_ BitVec 64))
(declare-fun temp138772_36 () (_ BitVec 64))
(declare-fun var275510 () (_ BitVec 64))
(declare-fun temp138772_37 () (_ BitVec 64))
(declare-fun var275528 () (_ BitVec 64))
(declare-fun temp138772_38 () (_ BitVec 64))
(declare-fun temp138772_40 () (_ BitVec 64))
(declare-fun temp138772_39 () (_ BitVec 64))
(declare-fun temp138772_42 () (_ BitVec 64))
(declare-fun temp138772_41 () (_ BitVec 64))
(declare-fun temp138772_43 () (_ BitVec 64))
(declare-fun var406582 () (_ BitVec 64))
(declare-fun temp138772_44 () (_ BitVec 64))
(declare-fun var406600 () (_ BitVec 64))
(declare-fun temp138772_45 () (_ BitVec 64))
(declare-fun temp138772_47 () (_ BitVec 64))
(declare-fun temp138772_46 () (_ BitVec 64))
(declare-fun temp138772_49 () (_ BitVec 64))
(declare-fun temp138772_48 () (_ BitVec 64))
(declare-fun temp138772_50 () (_ BitVec 64))
(declare-fun var537654 () (_ BitVec 64))
(declare-fun temp138772_51 () (_ BitVec 64))
(declare-fun var537672 () (_ BitVec 64))
(declare-fun temp138772_52 () (_ BitVec 64))
(declare-fun temp138772_54 () (_ BitVec 64))
(declare-fun temp138772_53 () (_ BitVec 64))
(declare-fun temp138772_56 () (_ BitVec 64))
(declare-fun temp138772_55 () (_ BitVec 64))
(declare-fun temp138772_58 () (_ BitVec 64))
(declare-fun temp138772_57 () (_ BitVec 64))
(declare-fun temp138772_60 () (_ BitVec 64))
(declare-fun temp138772_59 () (_ BitVec 64))
(declare-fun temp138772_62 () (_ BitVec 64))
(declare-fun temp138772_61 () (_ BitVec 64))
(declare-fun temp138772_63 () (_ BitVec 64))
(declare-fun var795723 () (_ BitVec 64))
(declare-fun var795702 () (_ BitVec 64))
(declare-fun var664608 () (_ BitVec 64))
(declare-fun temp138772_64 () (_ BitVec 64))
(declare-fun temp138772_65 () (_ BitVec 64))
(declare-fun var861259 () (_ BitVec 64))
(declare-fun var861238 () (_ BitVec 64))
(declare-fun var664611 () (_ BitVec 64))
(declare-fun temp138772_66 () (_ BitVec 64))
(declare-fun temp138772_68 () (_ BitVec 64))
(declare-fun temp138772_67 () (_ BitVec 64))
(declare-fun temp138772_70 () (_ BitVec 64))
(declare-fun temp138772_69 () (_ BitVec 64))
(declare-fun temp138772_72 () (_ BitVec 64))
(declare-fun temp138772_71 () (_ BitVec 64))
(declare-fun temp138772_73 () (_ BitVec 64))
(declare-fun var992306 () (_ BitVec 64))
(declare-fun temp138772_74 () (_ BitVec 64))
(declare-fun var992307 () (_ BitVec 64))
(declare-fun var992308 () (_ BitVec 64))
(declare-fun var992304 () (_ BitVec 64))
(declare-fun var599004 () (_ BitVec 64))
(declare-fun temp138772_75 () (_ BitVec 64))
(declare-fun var1057842 () (_ BitVec 64))
(declare-fun temp138772_76 () (_ BitVec 64))
(declare-fun var1057843 () (_ BitVec 64))
(declare-fun var1057844 () (_ BitVec 64))
(declare-fun var1057840 () (_ BitVec 64))
(declare-fun var599011 () (_ BitVec 64))
(declare-fun temp138772_77 () (_ BitVec 64))
(declare-fun var1123378 () (_ BitVec 64))
(declare-fun temp138772_78 () (_ BitVec 64))
(declare-fun var1123379 () (_ BitVec 64))
(declare-fun var1123380 () (_ BitVec 64))
(declare-fun var1123376 () (_ BitVec 64))
(declare-fun var599016 () (_ BitVec 64))
(declare-fun var78095 () (_ BitVec 64))
(declare-fun temp138772_79 () (_ BitVec 64))
(declare-fun temp138772_80 () (_ BitVec 64))
(declare-fun var78184 () (_ BitVec 64))
(declare-fun temp138772_82 () (_ BitVec 64))
(declare-fun temp138772_81 () (_ BitVec 64))
(declare-fun temp138772_84 () (_ BitVec 64))
(declare-fun temp138772_83 () (_ BitVec 64))
(declare-fun temp138772_85 () (_ BitVec 64))
(declare-fun var78544 () (_ BitVec 64))
(declare-fun temp138772_86 () (_ BitVec 64))
(declare-fun var78545 () (_ BitVec 64))
(assert (or (= ARGNAME_data_format_NAMEEND_STRFMT #x0000000000000000)
    (= ARGNAME_data_format_NAMEEND_STRFMT #x0000000000000001)
    (= ARGNAME_data_format_NAMEEND_STRFMT #x0000000000000002)
    (= ARGNAME_data_format_NAMEEND_STRFMT #x0000000000000003)
    (= ARGNAME_data_format_NAMEEND_STRFMT #x0000000000000004)
    (= ARGNAME_data_format_NAMEEND_STRFMT #x0000000000000005)))
(assert (= temp138772_1 #x0000000000000005))
(assert (= var77740
   (ite (= ARGNAME_input_1_NAMEEND_DIM temp138772_1)
        #x0000000000000001
        #x0000000000000000)))
(assert (= temp138772_2 #x0000000000000001))
(assert (= var77740 temp138772_2))
(assert (= temp138772_3 #x0000000000000005))
(assert (= var77770
   (ite (= ARGNAME_input_2_NAMEEND_DIM temp138772_3)
        #x0000000000000001
        #x0000000000000000)))
(assert (= temp138772_4 #x0000000000000001))
(assert (= var77770 temp138772_4))
(assert (= temp138772_5 #x0000000000000000))
(assert (= temp138772_6 (select ARGNAME_input_1_NAMEEND_DIMSIZE temp138772_5)))
(assert (= temp138772_7 #x0000000000000001))
(assert (= temp138772_8 (select ARGNAME_input_1_NAMEEND_DIMSIZE temp138772_7)))
(assert (= temp138772_9 #x0000000000000002))
(assert (= temp138772_10 (select ARGNAME_input_1_NAMEEND_DIMSIZE temp138772_9)))
(assert (= temp138772_11 #x0000000000000003))
(assert (= temp138772_12 (select ARGNAME_input_1_NAMEEND_DIMSIZE temp138772_11)))
(assert (= temp138772_13 #x0000000000000004))
(assert (= temp138772_14 (select ARGNAME_input_1_NAMEEND_DIMSIZE temp138772_13)))
(assert (= temp138772_15 #x0000000000000005))
(assert (= temp138772_16 (select ARGNAME_input_1_NAMEEND_DIMSIZE temp138772_15)))
(assert (= temp138772_17 #x0000000000000003))
(assert (= temp138772_18 (select ARGNAME_input_1_NAMEEND_DIMSIZE temp138772_17)))
(assert (= var77799 temp138772_18))
(assert (= temp138772_19 #x0000000000000000))
(assert (= temp138772_20 (select ARGNAME_input_2_NAMEEND_DIMSIZE temp138772_19)))
(assert (= temp138772_21 #x0000000000000001))
(assert (= temp138772_22 (select ARGNAME_input_2_NAMEEND_DIMSIZE temp138772_21)))
(assert (= temp138772_23 #x0000000000000002))
(assert (= temp138772_24 (select ARGNAME_input_2_NAMEEND_DIMSIZE temp138772_23)))
(assert (= temp138772_25 #x0000000000000003))
(assert (= temp138772_26 (select ARGNAME_input_2_NAMEEND_DIMSIZE temp138772_25)))
(assert (= temp138772_27 #x0000000000000004))
(assert (= temp138772_28 (select ARGNAME_input_2_NAMEEND_DIMSIZE temp138772_27)))
(assert (= temp138772_29 #x0000000000000005))
(assert (= temp138772_30 (select ARGNAME_input_2_NAMEEND_DIMSIZE temp138772_29)))
(assert (= temp138772_31 #x0000000000000004))
(assert (= temp138772_32 (select ARGNAME_input_2_NAMEEND_DIMSIZE temp138772_31)))
(assert (= var77832 temp138772_32))
(assert (= temp138772_33 #x0000000000000004))
(assert (= temp138772_34 (select ARGNAME_input_1_NAMEEND_DIMSIZE temp138772_33)))
(assert (= var77833 temp138772_34))
(assert (= var77834 (ite (= var77832 var77833) #x0000000000000001 #x0000000000000000)))
(assert (= temp138772_35 #x0000000000000001))
(assert (= var77834 temp138772_35))
(assert (= temp138772_36 #x0000000000000001))
(assert (= var275510 temp138772_36))
(assert (= temp138772_37 #x0000000000000001))
(assert (= var275528
   (ite (bvslt var275510 temp138772_37) #x0000000000000001 #x0000000000000000)))
(assert (= temp138772_38 #x0000000000000000))
(assert (= var275528 temp138772_38))
(assert (= temp138772_40 #x0000000000000000))
(assert (= temp138772_39 temp138772_40))
(assert (= temp138772_42 #x0000000000000000))
(assert (= temp138772_41 temp138772_42))
(assert (= temp138772_43 #x0000000000000001))
(assert (= var406582 temp138772_43))
(assert (= temp138772_44 #x0000000000000001))
(assert (= var406600
   (ite (bvslt var406582 temp138772_44) #x0000000000000001 #x0000000000000000)))
(assert (= temp138772_45 #x0000000000000000))
(assert (= var406600 temp138772_45))
(assert (= temp138772_47 #x0000000000000000))
(assert (= temp138772_46 temp138772_47))
(assert (= temp138772_49 #x0000000000000000))
(assert (= temp138772_48 temp138772_49))
(assert (= temp138772_50 #x0000000000000001))
(assert (= var537654 temp138772_50))
(assert (= temp138772_51 #x0000000000000001))
(assert (= var537672
   (ite (bvslt var537654 temp138772_51) #x0000000000000001 #x0000000000000000)))
(assert (= temp138772_52 #x0000000000000000))
(assert (= var537672 temp138772_52))
(assert (= temp138772_54 #x0000000000000000))
(assert (= temp138772_53 temp138772_54))
(assert (= temp138772_56 #x0000000000000000))
(assert (= temp138772_55 temp138772_56))
(assert (= temp138772_58 #x00000000000000ff))
(assert (= temp138772_57 temp138772_58))
(assert (= temp138772_60 #x00000000000000ff))
(assert (= temp138772_59 temp138772_60))
(assert (= temp138772_62 #x00000000000000ff))
(assert (= temp138772_61 temp138772_62))
(assert (= temp138772_63 #x0000000000000000))
(assert (= var795723 temp138772_63))
(assert (= var795702 var795723))
(assert (= var664608 var795702))
(assert (= temp138772_64 #x0000000000000000))
(assert (= var664608 temp138772_64))
(assert (= temp138772_65 #x0000000000000000))
(assert (= var861259 temp138772_65))
(assert (= var861238 var861259))
(assert (= var664611 var861238))
(assert (= temp138772_66 #x0000000000000000))
(assert (= var664611 temp138772_66))
(assert (= temp138772_68 #x0000000000000000))
(assert (= temp138772_67 temp138772_68))
(assert (= temp138772_70 #x0000000000000000))
(assert (= temp138772_69 temp138772_70))
(assert (= temp138772_72 #x0000000000000000))
(assert (= temp138772_71 temp138772_72))
(assert (= temp138772_73 #x0000000000008000))
(assert (= var992306 temp138772_73))
(assert (= temp138772_74 #x0000000000000001))
(assert (= var992307
   (ite (bvslt temp138772_71 temp138772_74)
        #x0000000000000001
        #x0000000000000000)))
(assert (= var992308 (ite (= var992307 #x0000000000000001) var992306 temp138772_71)))
(assert (= var992304 var992308))
(assert (= var599004 var992304))
(assert (= temp138772_75 #x0000000000040000))
(assert (= var1057842 temp138772_75))
(assert (= temp138772_76 #x0000000000000001))
(assert (= var1057843
   (ite (bvslt temp138772_69 temp138772_76)
        #x0000000000000001
        #x0000000000000000)))
(assert (= var1057844 (ite (= var1057843 #x0000000000000001) var1057842 temp138772_69)))
(assert (= var1057840 var1057844))
(assert (= var599011 var1057840))
(assert (= temp138772_77 #x0000000000200000))
(assert (= var1123378 temp138772_77))
(assert (= temp138772_78 #x0000000000000001))
(assert (= var1123379
   (ite (bvslt temp138772_67 temp138772_78)
        #x0000000000000001
        #x0000000000000000)))
(assert (= var1123380 (ite (= var1123379 #x0000000000000001) var1123378 temp138772_67)))
(assert (= var1123376 var1123380))
(assert (= var599016 var1123376))
(assert (= var78095 var599016))
(assert (= temp138772_79 #x0000000000000003))
(assert (= temp138772_80 #x0000000000000001))
(assert (= var78184 temp138772_80))
(assert (= temp138772_82 #x0000000000000001))
(assert (= temp138772_81 temp138772_82))
(assert (= temp138772_84 #x0000000000000001))
(assert (= temp138772_83 temp138772_84))
(assert (= temp138772_85 #x0000000000000000))
(assert (= var78544 temp138772_85))
(assert (= temp138772_86 #x0000000000000001))
(assert (= var78545 (bvadd var78544 temp138772_86)))
(model-add temp138772_1 () (_ BitVec 64) #x0000000000000005)
(model-add temp138772_2 () (_ BitVec 64) #x0000000000000001)
(model-add var77740 () (_ BitVec 64) #x0000000000000001)
(model-del k!0)
(model-add ARGNAME_input_1_NAMEEND_DIM
           ()
           (_ BitVec 64)
           (ite k!0 #x0000000000000005 (bvnot #x0000000000000005)))

